p cnf 120 2680
1 2 3 0
4 5 6 0
7 8 9 0
10 11 12 0
13 14 15 0
16 17 18 0
19 20 21 0
22 23 24 0
25 26 27 0
28 29 30 0
31 32 33 0
34 35 36 0
37 38 39 0
40 41 42 0
43 44 45 0
46 47 48 0
49 50 51 0
52 53 54 0
55 56 57 0
58 59 60 0
61 62 63 0
64 65 66 0
67 68 69 0
70 71 72 0
73 74 75 0
76 77 78 0
79 80 81 0
82 83 84 0
85 86 87 0
88 89 90 0
91 92 93 0
94 95 96 0
97 98 99 0
100 101 102 0
103 104 105 0
106 107 108 0
109 110 111 0
112 113 114 0
115 116 117 0
118 119 120 0
-1 -2 0
-1 -3 0
-2 -3 0
-4 -5 0
-4 -6 0
-5 -6 0
-7 -8 0
-7 -9 0
-8 -9 0
-10 -11 0
-10 -12 0
-11 -12 0
-13 -14 0
-13 -15 0
-14 -15 0
-16 -17 0
-16 -18 0
-17 -18 0
-19 -20 0
-19 -21 0
-20 -21 0
-22 -23 0
-22 -24 0
-23 -24 0
-25 -26 0
-25 -27 0
-26 -27 0
-28 -29 0
-28 -30 0
-29 -30 0
-31 -32 0
-31 -33 0
-32 -33 0
-34 -35 0
-34 -36 0
-35 -36 0
-37 -38 0
-37 -39 0
-38 -39 0
-40 -41 0
-40 -42 0
-41 -42 0
-43 -44 0
-43 -45 0
-44 -45 0
-46 -47 0
-46 -48 0
-47 -48 0
-49 -50 0
-49 -51 0
-50 -51 0
-52 -53 0
-52 -54 0
-53 -54 0
-55 -56 0
-55 -57 0
-56 -57 0
-58 -59 0
-58 -60 0
-59 -60 0
-61 -62 0
-61 -63 0
-62 -63 0
-64 -65 0
-64 -66 0
-65 -66 0
-67 -68 0
-67 -69 0
-68 -69 0
-70 -71 0
-70 -72 0
-71 -72 0
-73 -74 0
-73 -75 0
-74 -75 0
-76 -77 0
-76 -78 0
-77 -78 0
-79 -80 0
-79 -81 0
-80 -81 0
-82 -83 0
-82 -84 0
-83 -84 0
-85 -86 0
-85 -87 0
-86 -87 0
-88 -89 0
-88 -90 0
-89 -90 0
-91 -92 0
-91 -93 0
-92 -93 0
-94 -95 0
-94 -96 0
-95 -96 0
-97 -98 0
-97 -99 0
-98 -99 0
-100 -101 0
-100 -102 0
-101 -102 0
-103 -104 0
-103 -105 0
-104 -105 0
-106 -107 0
-106 -108 0
-107 -108 0
-109 -110 0
-109 -111 0
-110 -111 0
-112 -113 0
-112 -114 0
-113 -114 0
-115 -116 0
-115 -117 0
-116 -117 0
-118 -119 0
-118 -120 0
-119 -120 0
-1 -7 0
-1 -10 0
-1 -13 0
-1 -25 0
-1 -31 0
-1 -34 0
-1 -37 0
-1 -46 0
-1 -61 0
-1 -64 0
-1 -67 0
-1 -76 0
-1 -79 0
-1 -88 0
-1 -91 0
-1 -97 0
-1 -100 0
-1 -106 0
-1 -109 0
-1 -112 0
-1 -118 0
-4 -7 0
-4 -10 0
-4 -22 0
-4 -25 0
-4 -28 0
-4 -34 0
-4 -37 0
-4 -40 0
-4 -43 0
-4 -46 0
-4 -49 0
-4 -55 0
-4 -58 0
-4 -64 0
-4 -67 0
-4 -73 0
-4 -79 0
-4 -82 0
-4 -85 0
-4 -88 0
-4 -100 0
-4 -103 0
-4 -106 0
-4 -118 0
-7 -1 0
-7 -4 0
-7 -16 0
-7 -19 0
-7 -25 0
-7 -31 0
-7 -40 0
-7 -43 0
-7 -52 0
-7 -58 0
-7 -73 0
-7 -82 0
-7 -85 0
-7 -88 0
-7 -91 0
-7 -100 0
-7 -103 0
-7 -106 0
-7 -109 0
-7 -112 0
-7 -118 0
-10 -1 0
-10 -4 0
-10 -13 0
-10 -19 0
-10 -25 0
-10 -31 0
-10 -34 0
-10 -40 0
-10 -43 0
-10 -46 0
-10 -58 0
-10 -67 0
-10 -73 0
-10 -76 0
-10 -82 0
-10 -85 0
-10 -91 0
-10 -97 0
-10 -109 0
-10 -115 0
-10 -118 0
-13 -1 0
-13 -10 0
-13 -19 0
-13 -22 0
-13 -25 0
-13 -28 0
-13 -31 0
-13 -43 0
-13 -49 0
-13 -52 0
-13 -55 0
-13 -58 0
-13 -61 0
-13 -64 0
-13 -70 0
-13 -73 0
-13 -76 0
-13 -85 0
-13 -103 0
-13 -115 0
-13 -118 0
-16 -7 0
-16 -19 0
-16 -22 0
-16 -28 0
-16 -31 0
-16 -37 0
-16 -40 0
-16 -46 0
-16 -49 0
-16 -58 0
-16 -61 0
-16 -67 0
-16 -73 0
-16 -76 0
-16 -82 0
-16 -85 0
-16 -88 0
-16 -106 0
-16 -115 0
-16 -118 0
-19 -7 0
-19 -10 0
-19 -13 0
-19 -16 0
-19 -22 0
-19 -34 0
-19 -37 0
-19 -43 0
-19 -49 0
-19 -58 0
-19 -61 0
-19 -70 0
-19 -73 0
-19 -76 0
-19 -82 0
-19 -85 0
-19 -88 0
-19 -91 0
-19 -94 0
-19 -100 0
-19 -103 0
-19 -115 0
-19 -118 0
-22 -4 0
-22 -13 0
-22 -16 0
-22 -19 0
-22 -25 0
-22 -31 0
-22 -34 0
-22 -37 0
-22 -40 0
-22 -43 0
-22 -49 0
-22 -52 0
-22 -64 0
-22 -70 0
-22 -82 0
-22 -85 0
-22 -88 0
-22 -100 0
-22 -103 0
-22 -106 0
-22 -112 0
-25 -1 0
-25 -4 0
-25 -7 0
-25 -10 0
-25 -13 0
-25 -22 0
-25 -31 0
-25 -37 0
-25 -49 0
-25 -55 0
-25 -58 0
-25 -61 0
-25 -64 0
-25 -70 0
-25 -73 0
-25 -76 0
-25 -79 0
-25 -85 0
-25 -91 0
-25 -97 0
-25 -103 0
-25 -106 0
-25 -115 0
-28 -4 0
-28 -13 0
-28 -16 0
-28 -31 0
-28 -34 0
-28 -49 0
-28 -52 0
-28 -58 0
-28 -61 0
-28 -64 0
-28 -76 0
-28 -88 0
-28 -91 0
-28 -97 0
-28 -103 0
-28 -106 0
-28 -109 0
-28 -115 0
-31 -1 0
-31 -7 0
-31 -10 0
-31 -13 0
-31 -16 0
-31 -22 0
-31 -25 0
-31 -28 0
-31 -40 0
-31 -43 0
-31 -46 0
-31 -52 0
-31 -55 0
-31 -61 0
-31 -70 0
-31 -73 0
-31 -85 0
-31 -88 0
-31 -91 0
-31 -97 0
-31 -100 0
-31 -103 0
-31 -109 0
-31 -118 0
-34 -1 0
-34 -4 0
-34 -10 0
-34 -19 0
-34 -22 0
-34 -28 0
-34 -37 0
-34 -40 0
-34 -46 0
-34 -58 0
-34 -61 0
-34 -67 0
-34 -70 0
-34 -73 0
-34 -76 0
-34 -85 0
-34 -91 0
-34 -97 0
-34 -100 0
-34 -103 0
-34 -106 0
-34 -109 0
-34 -112 0
-37 -1 0
-37 -4 0
-37 -16 0
-37 -19 0
-37 -22 0
-37 -25 0
-37 -34 0
-37 -40 0
-37 -46 0
-37 -49 0
-37 -58 0
-37 -61 0
-37 -67 0
-37 -70 0
-37 -76 0
-37 -79 0
-37 -82 0
-37 -85 0
-37 -88 0
-37 -91 0
-37 -97 0
-37 -103 0
-40 -4 0
-40 -7 0
-40 -10 0
-40 -16 0
-40 -22 0
-40 -31 0
-40 -34 0
-40 -37 0
-40 -43 0
-40 -49 0
-40 -52 0
-40 -61 0
-40 -64 0
-40 -67 0
-40 -70 0
-40 -73 0
-40 -76 0
-40 -79 0
-40 -91 0
-40 -97 0
-40 -112 0
-40 -118 0
-43 -4 0
-43 -7 0
-43 -10 0
-43 -13 0
-43 -19 0
-43 -22 0
-43 -31 0
-43 -40 0
-43 -52 0
-43 -58 0
-43 -61 0
-43 -64 0
-43 -70 0
-43 -73 0
-43 -79 0
-43 -82 0
-43 -88 0
-43 -94 0
-43 -97 0
-43 -100 0
-43 -103 0
-43 -109 0
-43 -112 0
-43 -115 0
-43 -118 0
-46 -1 0
-46 -4 0
-46 -10 0
-46 -16 0
-46 -31 0
-46 -34 0
-46 -37 0
-46 -49 0
-46 -52 0
-46 -55 0
-46 -58 0
-46 -64 0
-46 -67 0
-46 -70 0
-46 -73 0
-46 -79 0
-46 -82 0
-46 -85 0
-46 -91 0
-46 -97 0
-46 -100 0
-46 -106 0
-49 -4 0
-49 -13 0
-49 -16 0
-49 -19 0
-49 -22 0
-49 -25 0
-49 -28 0
-49 -37 0
-49 -40 0
-49 -46 0
-49 -55 0
-49 -61 0
-49 -64 0
-49 -73 0
-49 -76 0
-49 -79 0
-49 -82 0
-49 -85 0
-49 -88 0
-49 -94 0
-49 -97 0
-49 -109 0
-49 -118 0
-52 -7 0
-52 -13 0
-52 -22 0
-52 -28 0
-52 -31 0
-52 -40 0
-52 -43 0
-52 -46 0
-52 -67 0
-52 -70 0
-52 -82 0
-52 -88 0
-52 -91 0
-52 -94 0
-52 -100 0
-52 -103 0
-52 -106 0
-52 -109 0
-52 -112 0
-52 -118 0
-55 -4 0
-55 -13 0
-55 -25 0
-55 -31 0
-55 -46 0
-55 -49 0
-55 -58 0
-55 -64 0
-55 -70 0
-55 -73 0
-55 -76 0
-55 -82 0
-55 -85 0
-55 -91 0
-55 -97 0
-55 -103 0
-55 -106 0
-55 -109 0
-55 -112 0
-55 -118 0
-58 -4 0
-58 -7 0
-58 -10 0
-58 -13 0
-58 -16 0
-58 -19 0
-58 -25 0
-58 -28 0
-58 -34 0
-58 -37 0
-58 -43 0
-58 -46 0
-58 -55 0
-58 -64 0
-58 -67 0
-58 -73 0
-58 -85 0
-58 -100 0
-58 -103 0
-58 -106 0
-58 -109 0
-58 -112 0
-61 -1 0
-61 -13 0
-61 -16 0
-61 -19 0
-61 -25 0
-61 -28 0
-61 -31 0
-61 -34 0
-61 -37 0
-61 -40 0
-61 -43 0
-61 -49 0
-61 -67 0
-61 -85 0
-61 -88 0
-61 -94 0
-61 -97 0
-61 -103 0
-61 -109 0
-61 -118 0
-64 -1 0
-64 -4 0
-64 -13 0
-64 -22 0
-64 -25 0
-64 -28 0
-64 -40 0
-64 -43 0
-64 -46 0
-64 -49 0
-64 -55 0
-64 -58 0
-64 -67 0
-64 -70 0
-64 -73 0
-64 -79 0
-64 -82 0
-64 -88 0
-64 -91 0
-64 -106 0
-64 -112 0
-64 -115 0
-64 -118 0
-67 -1 0
-67 -4 0
-67 -10 0
-67 -16 0
-67 -34 0
-67 -37 0
-67 -40 0
-67 -46 0
-67 -52 0
-67 -58 0
-67 -61 0
-67 -64 0
-67 -70 0
-67 -82 0
-67 -88 0
-67 -91 0
-67 -94 0
-67 -97 0
-67 -100 0
-67 -103 0
-67 -118 0
-70 -13 0
-70 -19 0
-70 -22 0
-70 -25 0
-70 -31 0
-70 -34 0
-70 -37 0
-70 -40 0
-70 -43 0
-70 -46 0
-70 -52 0
-70 -55 0
-70 -64 0
-70 -67 0
-70 -76 0
-70 -79 0
-70 -85 0
-70 -97 0
-70 -103 0
-70 -106 0
-70 -115 0
-73 -4 0
-73 -7 0
-73 -10 0
-73 -13 0
-73 -16 0
-73 -19 0
-73 -25 0
-73 -31 0
-73 -34 0
-73 -40 0
-73 -43 0
-73 -46 0
-73 -49 0
-73 -55 0
-73 -58 0
-73 -64 0
-73 -85 0
-73 -88 0
-73 -91 0
-73 -94 0
-73 -97 0
-73 -115 0
-76 -1 0
-76 -10 0
-76 -13 0
-76 -16 0
-76 -19 0
-76 -25 0
-76 -28 0
-76 -34 0
-76 -37 0
-76 -40 0
-76 -49 0
-76 -55 0
-76 -70 0
-76 -79 0
-76 -82 0
-76 -85 0
-76 -88 0
-76 -94 0
-76 -97 0
-76 -103 0
-76 -109 0
-76 -112 0
-76 -118 0
-79 -1 0
-79 -4 0
-79 -25 0
-79 -37 0
-79 -40 0
-79 -43 0
-79 -46 0
-79 -49 0
-79 -64 0
-79 -70 0
-79 -76 0
-79 -82 0
-79 -85 0
-79 -91 0
-79 -94 0
-79 -97 0
-79 -103 0
-79 -109 0
-79 -115 0
-79 -118 0
-82 -4 0
-82 -7 0
-82 -10 0
-82 -16 0
-82 -19 0
-82 -22 0
-82 -37 0
-82 -43 0
-82 -46 0
-82 -49 0
-82 -52 0
-82 -55 0
-82 -64 0
-82 -67 0
-82 -76 0
-82 -79 0
-82 -97 0
-82 -100 0
-82 -103 0
-82 -106 0
-82 -112 0
-82 -115 0
-85 -4 0
-85 -7 0
-85 -10 0
-85 -13 0
-85 -16 0
-85 -19 0
-85 -22 0
-85 -25 0
-85 -31 0
-85 -34 0
-85 -37 0
-85 -46 0
-85 -49 0
-85 -55 0
-85 -58 0
-85 -61 0
-85 -70 0
-85 -73 0
-85 -76 0
-85 -79 0
-88 -1 0
-88 -4 0
-88 -7 0
-88 -16 0
-88 -19 0
-88 -22 0
-88 -28 0
-88 -31 0
-88 -37 0
-88 -43 0
-88 -49 0
-88 -52 0
-88 -61 0
-88 -64 0
-88 -67 0
-88 -73 0
-88 -76 0
-91 -1 0
-91 -7 0
-91 -10 0
-91 -19 0
-91 -25 0
-91 -28 0
-91 -31 0
-91 -34 0
-91 -37 0
-91 -40 0
-91 -46 0
-91 -52 0
-91 -55 0
-91 -64 0
-91 -67 0
-91 -73 0
-91 -79 0
-91 -94 0
-91 -97 0
-91 -106 0
-91 -115 0
-91 -118 0
-94 -19 0
-94 -43 0
-94 -49 0
-94 -52 0
-94 -61 0
-94 -67 0
-94 -73 0
-94 -76 0
-94 -79 0
-94 -91 0
-94 -97 0
-94 -100 0
-94 -106 0
-94 -109 0
-94 -112 0
-94 -115 0
-94 -118 0
-97 -1 0
-97 -10 0
-97 -25 0
-97 -28 0
-97 -31 0
-97 -34 0
-97 -37 0
-97 -40 0
-97 -43 0
-97 -46 0
-97 -49 0
-97 -55 0
-97 -61 0
-97 -67 0
-97 -70 0
-97 -73 0
-97 -76 0
-97 -79 0
-97 -82 0
-97 -91 0
-97 -94 0
-97 -106 0
-97 -112 0
-97 -115 0
-100 -1 0
-100 -4 0
-100 -7 0
-100 -19 0
-100 -22 0
-100 -31 0
-100 -34 0
-100 -43 0
-100 -46 0
-100 -52 0
-100 -58 0
-100 -67 0
-100 -82 0
-100 -94 0
-100 -106 0
-100 -112 0
-100 -115 0
-100 -118 0
-103 -4 0
-103 -7 0
-103 -13 0
-103 -19 0
-103 -22 0
-103 -25 0
-103 -28 0
-103 -31 0
-103 -34 0
-103 -37 0
-103 -43 0
-103 -52 0
-103 -55 0
-103 -58 0
-103 -61 0
-103 -67 0
-103 -70 0
-103 -76 0
-103 -79 0
-103 -82 0
-106 -1 0
-106 -4 0
-106 -7 0
-106 -16 0
-106 -22 0
-106 -25 0
-106 -28 0
-106 -34 0
-106 -46 0
-106 -52 0
-106 -55 0
-106 -58 0
-106 -64 0
-106 -70 0
-106 -82 0
-106 -91 0
-106 -94 0
-106 -97 0
-106 -100 0
-106 -109 0
-106 -112 0
-106 -115 0
-109 -1 0
-109 -7 0
-109 -10 0
-109 -28 0
-109 -31 0
-109 -34 0
-109 -43 0
-109 -49 0
-109 -52 0
-109 -55 0
-109 -58 0
-109 -61 0
-109 -76 0
-109 -79 0
-109 -94 0
-109 -106 0
-112 -1 0
-112 -7 0
-112 -22 0
-112 -34 0
-112 -40 0
-112 -43 0
-112 -52 0
-112 -55 0
-112 -58 0
-112 -64 0
-112 -76 0
-112 -82 0
-112 -94 0
-112 -97 0
-112 -100 0
-112 -106 0
-112 -115 0
-115 -10 0
-115 -13 0
-115 -16 0
-115 -19 0
-115 -25 0
-115 -28 0
-115 -43 0
-115 -64 0
-115 -70 0
-115 -73 0
-115 -79 0
-115 -82 0
-115 -91 0
-115 -94 0
-115 -97 0
-115 -100 0
-115 -106 0
-115 -112 0
-118 -1 0
-118 -4 0
-118 -7 0
-118 -10 0
-118 -13 0
-118 -16 0
-118 -19 0
-118 -31 0
-118 -40 0
-118 -43 0
-118 -49 0
-118 -52 0
-118 -55 0
-118 -61 0
-118 -64 0
-118 -67 0
-118 -76 0
-118 -79 0
-118 -91 0
-118 -94 0
-118 -100 0
-2 -8 0
-2 -11 0
-2 -14 0
-2 -26 0
-2 -32 0
-2 -35 0
-2 -38 0
-2 -47 0
-2 -62 0
-2 -65 0
-2 -68 0
-2 -77 0
-2 -80 0
-2 -89 0
-2 -92 0
-2 -98 0
-2 -101 0
-2 -107 0
-2 -110 0
-2 -113 0
-2 -119 0
-5 -8 0
-5 -11 0
-5 -23 0
-5 -26 0
-5 -29 0
-5 -35 0
-5 -38 0
-5 -41 0
-5 -44 0
-5 -47 0
-5 -50 0
-5 -56 0
-5 -59 0
-5 -65 0
-5 -68 0
-5 -74 0
-5 -80 0
-5 -83 0
-5 -86 0
-5 -89 0
-5 -101 0
-5 -104 0
-5 -107 0
-5 -119 0
-8 -2 0
-8 -5 0
-8 -17 0
-8 -20 0
-8 -26 0
-8 -32 0
-8 -41 0
-8 -44 0
-8 -53 0
-8 -59 0
-8 -74 0
-8 -83 0
-8 -86 0
-8 -89 0
-8 -92 0
-8 -101 0
-8 -104 0
-8 -107 0
-8 -110 0
-8 -113 0
-8 -119 0
-11 -2 0
-11 -5 0
-11 -14 0
-11 -20 0
-11 -26 0
-11 -32 0
-11 -35 0
-11 -41 0
-11 -44 0
-11 -47 0
-11 -59 0
-11 -68 0
-11 -74 0
-11 -77 0
-11 -83 0
-11 -86 0
-11 -92 0
-11 -98 0
-11 -110 0
-11 -116 0
-11 -119 0
-14 -2 0
-14 -11 0
-14 -20 0
-14 -23 0
-14 -26 0
-14 -29 0
-14 -32 0
-14 -44 0
-14 -50 0
-14 -53 0
-14 -56 0
-14 -59 0
-14 -62 0
-14 -65 0
-14 -71 0
-14 -74 0
-14 -77 0
-14 -86 0
-14 -104 0
-14 -116 0
-14 -119 0
-17 -8 0
-17 -20 0
-17 -23 0
-17 -29 0
-17 -32 0
-17 -38 0
-17 -41 0
-17 -47 0
-17 -50 0
-17 -59 0
-17 -62 0
-17 -68 0
-17 -74 0
-17 -77 0
-17 -83 0
-17 -86 0
-17 -89 0
-17 -107 0
-17 -116 0
-17 -119 0
-20 -8 0
-20 -11 0
-20 -14 0
-20 -17 0
-20 -23 0
-20 -35 0
-20 -38 0
-20 -44 0
-20 -50 0
-20 -59 0
-20 -62 0
-20 -71 0
-20 -74 0
-20 -77 0
-20 -83 0
-20 -86 0
-20 -89 0
-20 -92 0
-20 -95 0
-20 -101 0
-20 -104 0
-20 -116 0
-20 -119 0
-23 -5 0
-23 -14 0
-23 -17 0
-23 -20 0
-23 -26 0
-23 -32 0
-23 -35 0
-23 -38 0
-23 -41 0
-23 -44 0
-23 -50 0
-23 -53 0
-23 -65 0
-23 -71 0
-23 -83 0
-23 -86 0
-23 -89 0
-23 -101 0
-23 -104 0
-23 -107 0
-23 -113 0
-26 -2 0
-26 -5 0
-26 -8 0
-26 -11 0
-26 -14 0
-26 -23 0
-26 -32 0
-26 -38 0
-26 -50 0
-26 -56 0
-26 -59 0
-26 -62 0
-26 -65 0
-26 -71 0
-26 -74 0
-26 -77 0
-26 -80 0
-26 -86 0
-26 -92 0
-26 -98 0
-26 -104 0
-26 -107 0
-26 -116 0
-29 -5 0
-29 -14 0
-29 -17 0
-29 -32 0
-29 -35 0
-29 -50 0
-29 -53 0
-29 -59 0
-29 -62 0
-29 -65 0
-29 -77 0
-29 -89 0
-29 -92 0
-29 -98 0
-29 -104 0
-29 -107 0
-29 -110 0
-29 -116 0
-32 -2 0
-32 -8 0
-32 -11 0
-32 -14 0
-32 -17 0
-32 -23 0
-32 -26 0
-32 -29 0
-32 -41 0
-32 -44 0
-32 -47 0
-32 -53 0
-32 -56 0
-32 -62 0
-32 -71 0
-32 -74 0
-32 -86 0
-32 -89 0
-32 -92 0
-32 -98 0
-32 -101 0
-32 -104 0
-32 -110 0
-32 -119 0
-35 -2 0
-35 -5 0
-35 -11 0
-35 -20 0
-35 -23 0
-35 -29 0
-35 -38 0
-35 -41 0
-35 -47 0
-35 -59 0
-35 -62 0
-35 -68 0
-35 -71 0
-35 -74 0
-35 -77 0
-35 -86 0
-35 -92 0
-35 -98 0
-35 -101 0
-35 -104 0
-35 -107 0
-35 -110 0
-35 -113 0
-38 -2 0
-38 -5 0
-38 -17 0
-38 -20 0
-38 -23 0
-38 -26 0
-38 -35 0
-38 -41 0
-38 -47 0
-38 -50 0
-38 -59 0
-38 -62 0
-38 -68 0
-38 -71 0
-38 -77 0
-38 -80 0
-38 -83 0
-38 -86 0
-38 -89 0
-38 -92 0
-38 -98 0
-38 -104 0
-41 -5 0
-41 -8 0
-41 -11 0
-41 -17 0
-41 -23 0
-41 -32 0
-41 -35 0
-41 -38 0
-41 -44 0
-41 -50 0
-41 -53 0
-41 -62 0
-41 -65 0
-41 -68 0
-41 -71 0
-41 -74 0
-41 -77 0
-41 -80 0
-41 -92 0
-41 -98 0
-41 -113 0
-41 -119 0
-44 -5 0
-44 -8 0
-44 -11 0
-44 -14 0
-44 -20 0
-44 -23 0
-44 -32 0
-44 -41 0
-44 -53 0
-44 -59 0
-44 -62 0
-44 -65 0
-44 -71 0
-44 -74 0
-44 -80 0
-44 -83 0
-44 -89 0
-44 -95 0
-44 -98 0
-44 -101 0
-44 -104 0
-44 -110 0
-44 -113 0
-44 -116 0
-44 -119 0
-47 -2 0
-47 -5 0
-47 -11 0
-47 -17 0
-47 -32 0
-47 -35 0
-47 -38 0
-47 -50 0
-47 -53 0
-47 -56 0
-47 -59 0
-47 -65 0
-47 -68 0
-47 -71 0
-47 -74 0
-47 -80 0
-47 -83 0
-47 -86 0
-47 -92 0
-47 -98 0
-47 -101 0
-47 -107 0
-50 -5 0
-50 -14 0
-50 -17 0
-50 -20 0
-50 -23 0
-50 -26 0
-50 -29 0
-50 -38 0
-50 -41 0
-50 -47 0
-50 -56 0
-50 -62 0
-50 -65 0
-50 -74 0
-50 -77 0
-50 -80 0
-50 -83 0
-50 -86 0
-50 -89 0
-50 -95 0
-50 -98 0
-50 -110 0
-50 -119 0
-53 -8 0
-53 -14 0
-53 -23 0
-53 -29 0
-53 -32 0
-53 -41 0
-53 -44 0
-53 -47 0
-53 -68 0
-53 -71 0
-53 -83 0
-53 -89 0
-53 -92 0
-53 -95 0
-53 -101 0
-53 -104 0
-53 -107 0
-53 -110 0
-53 -113 0
-53 -119 0
-56 -5 0
-56 -14 0
-56 -26 0
-56 -32 0
-56 -47 0
-56 -50 0
-56 -59 0
-56 -65 0
-56 -71 0
-56 -74 0
-56 -77 0
-56 -83 0
-56 -86 0
-56 -92 0
-56 -98 0
-56 -104 0
-56 -107 0
-56 -110 0
-56 -113 0
-56 -119 0
-59 -5 0
-59 -8 0
-59 -11 0
-59 -14 0
-59 -17 0
-59 -20 0
-59 -26 0
-59 -29 0
-59 -35 0
-59 -38 0
-59 -44 0
-59 -47 0
-59 -56 0
-59 -65 0
-59 -68 0
-59 -74 0
-59 -86 0
-59 -101 0
-59 -104 0
-59 -107 0
-59 -110 0
-59 -113 0
-62 -2 0
-62 -14 0
-62 -17 0
-62 -20 0
-62 -26 0
-62 -29 0
-62 -32 0
-62 -35 0
-62 -38 0
-62 -41 0
-62 -44 0
-62 -50 0
-62 -68 0
-62 -86 0
-62 -89 0
-62 -95 0
-62 -98 0
-62 -104 0
-62 -110 0
-62 -119 0
-65 -2 0
-65 -5 0
-65 -14 0
-65 -23 0
-65 -26 0
-65 -29 0
-65 -41 0
-65 -44 0
-65 -47 0
-65 -50 0
-65 -56 0
-65 -59 0
-65 -68 0
-65 -71 0
-65 -74 0
-65 -80 0
-65 -83 0
-65 -89 0
-65 -92 0
-65 -107 0
-65 -113 0
-65 -116 0
-65 -119 0
-68 -2 0
-68 -5 0
-68 -11 0
-68 -17 0
-68 -35 0
-68 -38 0
-68 -41 0
-68 -47 0
-68 -53 0
-68 -59 0
-68 -62 0
-68 -65 0
-68 -71 0
-68 -83 0
-68 -89 0
-68 -92 0
-68 -95 0
-68 -98 0
-68 -101 0
-68 -104 0
-68 -119 0
-71 -14 0
-71 -20 0
-71 -23 0
-71 -26 0
-71 -32 0
-71 -35 0
-71 -38 0
-71 -41 0
-71 -44 0
-71 -47 0
-71 -53 0
-71 -56 0
-71 -65 0
-71 -68 0
-71 -77 0
-71 -80 0
-71 -86 0
-71 -98 0
-71 -104 0
-71 -107 0
-71 -116 0
-74 -5 0
-74 -8 0
-74 -11 0
-74 -14 0
-74 -17 0
-74 -20 0
-74 -26 0
-74 -32 0
-74 -35 0
-74 -41 0
-74 -44 0
-74 -47 0
-74 -50 0
-74 -56 0
-74 -59 0
-74 -65 0
-74 -86 0
-74 -89 0
-74 -92 0
-74 -95 0
-74 -98 0
-74 -116 0
-77 -2 0
-77 -11 0
-77 -14 0
-77 -17 0
-77 -20 0
-77 -26 0
-77 -29 0
-77 -35 0
-77 -38 0
-77 -41 0
-77 -50 0
-77 -56 0
-77 -71 0
-77 -80 0
-77 -83 0
-77 -86 0
-77 -89 0
-77 -95 0
-77 -98 0
-77 -104 0
-77 -110 0
-77 -113 0
-77 -119 0
-80 -2 0
-80 -5 0
-80 -26 0
-80 -38 0
-80 -41 0
-80 -44 0
-80 -47 0
-80 -50 0
-80 -65 0
-80 -71 0
-80 -77 0
-80 -83 0
-80 -86 0
-80 -92 0
-80 -95 0
-80 -98 0
-80 -104 0
-80 -110 0
-80 -116 0
-80 -119 0
-83 -5 0
-83 -8 0
-83 -11 0
-83 -17 0
-83 -20 0
-83 -23 0
-83 -38 0
-83 -44 0
-83 -47 0
-83 -50 0
-83 -53 0
-83 -56 0
-83 -65 0
-83 -68 0
-83 -77 0
-83 -80 0
-83 -98 0
-83 -101 0
-83 -104 0
-83 -107 0
-83 -113 0
-83 -116 0
-86 -5 0
-86 -8 0
-86 -11 0
-86 -14 0
-86 -17 0
-86 -20 0
-86 -23 0
-86 -26 0
-86 -32 0
-86 -35 0
-86 -38 0
-86 -47 0
-86 -50 0
-86 -56 0
-86 -59 0
-86 -62 0
-86 -71 0
-86 -74 0
-86 -77 0
-86 -80 0
-89 -2 0
-89 -5 0
-89 -8 0
-89 -17 0
-89 -20 0
-89 -23 0
-89 -29 0
-89 -32 0
-89 -38 0
-89 -44 0
-89 -50 0
-89 -53 0
-89 -62 0
-89 -65 0
-89 -68 0
-89 -74 0
-89 -77 0
-92 -2 0
-92 -8 0
-92 -11 0
-92 -20 0
-92 -26 0
-92 -29 0
-92 -32 0
-92 -35 0
-92 -38 0
-92 -41 0
-92 -47 0
-92 -53 0
-92 -56 0
-92 -65 0
-92 -68 0
-92 -74 0
-92 -80 0
-92 -95 0
-92 -98 0
-92 -107 0
-92 -116 0
-92 -119 0
-95 -20 0
-95 -44 0
-95 -50 0
-95 -53 0
-95 -62 0
-95 -68 0
-95 -74 0
-95 -77 0
-95 -80 0
-95 -92 0
-95 -98 0
-95 -101 0
-95 -107 0
-95 -110 0
-95 -113 0
-95 -116 0
-95 -119 0
-98 -2 0
-98 -11 0
-98 -26 0
-98 -29 0
-98 -32 0
-98 -35 0
-98 -38 0
-98 -41 0
-98 -44 0
-98 -47 0
-98 -50 0
-98 -56 0
-98 -62 0
-98 -68 0
-98 -71 0
-98 -74 0
-98 -77 0
-98 -80 0
-98 -83 0
-98 -92 0
-98 -95 0
-98 -107 0
-98 -113 0
-98 -116 0
-101 -2 0
-101 -5 0
-101 -8 0
-101 -20 0
-101 -23 0
-101 -32 0
-101 -35 0
-101 -44 0
-101 -47 0
-101 -53 0
-101 -59 0
-101 -68 0
-101 -83 0
-101 -95 0
-101 -107 0
-101 -113 0
-101 -116 0
-101 -119 0
-104 -5 0
-104 -8 0
-104 -14 0
-104 -20 0
-104 -23 0
-104 -26 0
-104 -29 0
-104 -32 0
-104 -35 0
-104 -38 0
-104 -44 0
-104 -53 0
-104 -56 0
-104 -59 0
-104 -62 0
-104 -68 0
-104 -71 0
-104 -77 0
-104 -80 0
-104 -83 0
-107 -2 0
-107 -5 0
-107 -8 0
-107 -17 0
-107 -23 0
-107 -26 0
-107 -29 0
-107 -35 0
-107 -47 0
-107 -53 0
-107 -56 0
-107 -59 0
-107 -65 0
-107 -71 0
-107 -83 0
-107 -92 0
-107 -95 0
-107 -98 0
-107 -101 0
-107 -110 0
-107 -113 0
-107 -116 0
-110 -2 0
-110 -8 0
-110 -11 0
-110 -29 0
-110 -32 0
-110 -35 0
-110 -44 0
-110 -50 0
-110 -53 0
-110 -56 0
-110 -59 0
-110 -62 0
-110 -77 0
-110 -80 0
-110 -95 0
-110 -107 0
-113 -2 0
-113 -8 0
-113 -23 0
-113 -35 0
-113 -41 0
-113 -44 0
-113 -53 0
-113 -56 0
-113 -59 0
-113 -65 0
-113 -77 0
-113 -83 0
-113 -95 0
-113 -98 0
-113 -101 0
-113 -107 0
-113 -116 0
-116 -11 0
-116 -14 0
-116 -17 0
-116 -20 0
-116 -26 0
-116 -29 0
-116 -44 0
-116 -65 0
-116 -71 0
-116 -74 0
-116 -80 0
-116 -83 0
-116 -92 0
-116 -95 0
-116 -98 0
-116 -101 0
-116 -107 0
-116 -113 0
-119 -2 0
-119 -5 0
-119 -8 0
-119 -11 0
-119 -14 0
-119 -17 0
-119 -20 0
-119 -32 0
-119 -41 0
-119 -44 0
-119 -50 0
-119 -53 0
-119 -56 0
-119 -62 0
-119 -65 0
-119 -68 0
-119 -77 0
-119 -80 0
-119 -92 0
-119 -95 0
-119 -101 0
-3 -9 0
-3 -12 0
-3 -15 0
-3 -27 0
-3 -33 0
-3 -36 0
-3 -39 0
-3 -48 0
-3 -63 0
-3 -66 0
-3 -69 0
-3 -78 0
-3 -81 0
-3 -90 0
-3 -93 0
-3 -99 0
-3 -102 0
-3 -108 0
-3 -111 0
-3 -114 0
-3 -120 0
-6 -9 0
-6 -12 0
-6 -24 0
-6 -27 0
-6 -30 0
-6 -36 0
-6 -39 0
-6 -42 0
-6 -45 0
-6 -48 0
-6 -51 0
-6 -57 0
-6 -60 0
-6 -66 0
-6 -69 0
-6 -75 0
-6 -81 0
-6 -84 0
-6 -87 0
-6 -90 0
-6 -102 0
-6 -105 0
-6 -108 0
-6 -120 0
-9 -3 0
-9 -6 0
-9 -18 0
-9 -21 0
-9 -27 0
-9 -33 0
-9 -42 0
-9 -45 0
-9 -54 0
-9 -60 0
-9 -75 0
-9 -84 0
-9 -87 0
-9 -90 0
-9 -93 0
-9 -102 0
-9 -105 0
-9 -108 0
-9 -111 0
-9 -114 0
-9 -120 0
-12 -3 0
-12 -6 0
-12 -15 0
-12 -21 0
-12 -27 0
-12 -33 0
-12 -36 0
-12 -42 0
-12 -45 0
-12 -48 0
-12 -60 0
-12 -69 0
-12 -75 0
-12 -78 0
-12 -84 0
-12 -87 0
-12 -93 0
-12 -99 0
-12 -111 0
-12 -117 0
-12 -120 0
-15 -3 0
-15 -12 0
-15 -21 0
-15 -24 0
-15 -27 0
-15 -30 0
-15 -33 0
-15 -45 0
-15 -51 0
-15 -54 0
-15 -57 0
-15 -60 0
-15 -63 0
-15 -66 0
-15 -72 0
-15 -75 0
-15 -78 0
-15 -87 0
-15 -105 0
-15 -117 0
-15 -120 0
-18 -9 0
-18 -21 0
-18 -24 0
-18 -30 0
-18 -33 0
-18 -39 0
-18 -42 0
-18 -48 0
-18 -51 0
-18 -60 0
-18 -63 0
-18 -69 0
-18 -75 0
-18 -78 0
-18 -84 0
-18 -87 0
-18 -90 0
-18 -108 0
-18 -117 0
-18 -120 0
-21 -9 0
-21 -12 0
-21 -15 0
-21 -18 0
-21 -24 0
-21 -36 0
-21 -39 0
-21 -45 0
-21 -51 0
-21 -60 0
-21 -63 0
-21 -72 0
-21 -75 0
-21 -78 0
-21 -84 0
-21 -87 0
-21 -90 0
-21 -93 0
-21 -96 0
-21 -102 0
-21 -105 0
-21 -117 0
-21 -120 0
-24 -6 0
-24 -15 0
-24 -18 0
-24 -21 0
-24 -27 0
-24 -33 0
-24 -36 0
-24 -39 0
-24 -42 0
-24 -45 0
-24 -51 0
-24 -54 0
-24 -66 0
-24 -72 0
-24 -84 0
-24 -87 0
-24 -90 0
-24 -102 0
-24 -105 0
-24 -108 0
-24 -114 0
-27 -3 0
-27 -6 0
-27 -9 0
-27 -12 0
-27 -15 0
-27 -24 0
-27 -33 0
-27 -39 0
-27 -51 0
-27 -57 0
-27 -60 0
-27 -63 0
-27 -66 0
-27 -72 0
-27 -75 0
-27 -78 0
-27 -81 0
-27 -87 0
-27 -93 0
-27 -99 0
-27 -105 0
-27 -108 0
-27 -117 0
-30 -6 0
-30 -15 0
-30 -18 0
-30 -33 0
-30 -36 0
-30 -51 0
-30 -54 0
-30 -60 0
-30 -63 0
-30 -66 0
-30 -78 0
-30 -90 0
-30 -93 0
-30 -99 0
-30 -105 0
-30 -108 0
-30 -111 0
-30 -117 0
-33 -3 0
-33 -9 0
-33 -12 0
-33 -15 0
-33 -18 0
-33 -24 0
-33 -27 0
-33 -30 0
-33 -42 0
-33 -45 0
-33 -48 0
-33 -54 0
-33 -57 0
-33 -63 0
-33 -72 0
-33 -75 0
-33 -87 0
-33 -90 0
-33 -93 0
-33 -99 0
-33 -102 0
-33 -105 0
-33 -111 0
-33 -120 0
-36 -3 0
-36 -6 0
-36 -12 0
-36 -21 0
-36 -24 0
-36 -30 0
-36 -39 0
-36 -42 0
-36 -48 0
-36 -60 0
-36 -63 0
-36 -69 0
-36 -72 0
-36 -75 0
-36 -78 0
-36 -87 0
-36 -93 0
-36 -99 0
-36 -102 0
-36 -105 0
-36 -108 0
-36 -111 0
-36 -114 0
-39 -3 0
-39 -6 0
-39 -18 0
-39 -21 0
-39 -24 0
-39 -27 0
-39 -36 0
-39 -42 0
-39 -48 0
-39 -51 0
-39 -60 0
-39 -63 0
-39 -69 0
-39 -72 0
-39 -78 0
-39 -81 0
-39 -84 0
-39 -87 0
-39 -90 0
-39 -93 0
-39 -99 0
-39 -105 0
-42 -6 0
-42 -9 0
-42 -12 0
-42 -18 0
-42 -24 0
-42 -33 0
-42 -36 0
-42 -39 0
-42 -45 0
-42 -51 0
-42 -54 0
-42 -63 0
-42 -66 0
-42 -69 0
-42 -72 0
-42 -75 0
-42 -78 0
-42 -81 0
-42 -93 0
-42 -99 0
-42 -114 0
-42 -120 0
-45 -6 0
-45 -9 0
-45 -12 0
-45 -15 0
-45 -21 0
-45 -24 0
-45 -33 0
-45 -42 0
-45 -54 0
-45 -60 0
-45 -63 0
-45 -66 0
-45 -72 0
-45 -75 0
-45 -81 0
-45 -84 0
-45 -90 0
-45 -96 0
-45 -99 0
-45 -102 0
-45 -105 0
-45 -111 0
-45 -114 0
-45 -117 0
-45 -120 0
-48 -3 0
-48 -6 0
-48 -12 0
-48 -18 0
-48 -33 0
-48 -36 0
-48 -39 0
-48 -51 0
-48 -54 0
-48 -57 0
-48 -60 0
-48 -66 0
-48 -69 0
-48 -72 0
-48 -75 0
-48 -81 0
-48 -84 0
-48 -87 0
-48 -93 0
-48 -99 0
-48 -102 0
-48 -108 0
-51 -6 0
-51 -15 0
-51 -18 0
-51 -21 0
-51 -24 0
-51 -27 0
-51 -30 0
-51 -39 0
-51 -42 0
-51 -48 0
-51 -57 0
-51 -63 0
-51 -66 0
-51 -75 0
-51 -78 0
-51 -81 0
-51 -84 0
-51 -87 0
-51 -90 0
-51 -96 0
-51 -99 0
-51 -111 0
-51 -120 0
-54 -9 0
-54 -15 0
-54 -24 0
-54 -30 0
-54 -33 0
-54 -42 0
-54 -45 0
-54 -48 0
-54 -69 0
-54 -72 0
-54 -84 0
-54 -90 0
-54 -93 0
-54 -96 0
-54 -102 0
-54 -105 0
-54 -108 0
-54 -111 0
-54 -114 0
-54 -120 0
-57 -6 0
-57 -15 0
-57 -27 0
-57 -33 0
-57 -48 0
-57 -51 0
-57 -60 0
-57 -66 0
-57 -72 0
-57 -75 0
-57 -78 0
-57 -84 0
-57 -87 0
-57 -93 0
-57 -99 0
-57 -105 0
-57 -108 0
-57 -111 0
-57 -114 0
-57 -120 0
-60 -6 0
-60 -9 0
-60 -12 0
-60 -15 0
-60 -18 0
-60 -21 0
-60 -27 0
-60 -30 0
-60 -36 0
-60 -39 0
-60 -45 0
-60 -48 0
-60 -57 0
-60 -66 0
-60 -69 0
-60 -75 0
-60 -87 0
-60 -102 0
-60 -105 0
-60 -108 0
-60 -111 0
-60 -114 0
-63 -3 0
-63 -15 0
-63 -18 0
-63 -21 0
-63 -27 0
-63 -30 0
-63 -33 0
-63 -36 0
-63 -39 0
-63 -42 0
-63 -45 0
-63 -51 0
-63 -69 0
-63 -87 0
-63 -90 0
-63 -96 0
-63 -99 0
-63 -105 0
-63 -111 0
-63 -120 0
-66 -3 0
-66 -6 0
-66 -15 0
-66 -24 0
-66 -27 0
-66 -30 0
-66 -42 0
-66 -45 0
-66 -48 0
-66 -51 0
-66 -57 0
-66 -60 0
-66 -69 0
-66 -72 0
-66 -75 0
-66 -81 0
-66 -84 0
-66 -90 0
-66 -93 0
-66 -108 0
-66 -114 0
-66 -117 0
-66 -120 0
-69 -3 0
-69 -6 0
-69 -12 0
-69 -18 0
-69 -36 0
-69 -39 0
-69 -42 0
-69 -48 0
-69 -54 0
-69 -60 0
-69 -63 0
-69 -66 0
-69 -72 0
-69 -84 0
-69 -90 0
-69 -93 0
-69 -96 0
-69 -99 0
-69 -102 0
-69 -105 0
-69 -120 0
-72 -15 0
-72 -21 0
-72 -24 0
-72 -27 0
-72 -33 0
-72 -36 0
-72 -39 0
-72 -42 0
-72 -45 0
-72 -48 0
-72 -54 0
-72 -57 0
-72 -66 0
-72 -69 0
-72 -78 0
-72 -81 0
-72 -87 0
-72 -99 0
-72 -105 0
-72 -108 0
-72 -117 0
-75 -6 0
-75 -9 0
-75 -12 0
-75 -15 0
-75 -18 0
-75 -21 0
-75 -27 0
-75 -33 0
-75 -36 0
-75 -42 0
-75 -45 0
-75 -48 0
-75 -51 0
-75 -57 0
-75 -60 0
-75 -66 0
-75 -87 0
-75 -90 0
-75 -93 0
-75 -96 0
-75 -99 0
-75 -117 0
-78 -3 0
-78 -12 0
-78 -15 0
-78 -18 0
-78 -21 0
-78 -27 0
-78 -30 0
-78 -36 0
-78 -39 0
-78 -42 0
-78 -51 0
-78 -57 0
-78 -72 0
-78 -81 0
-78 -84 0
-78 -87 0
-78 -90 0
-78 -96 0
-78 -99 0
-78 -105 0
-78 -111 0
-78 -114 0
-78 -120 0
-81 -3 0
-81 -6 0
-81 -27 0
-81 -39 0
-81 -42 0
-81 -45 0
-81 -48 0
-81 -51 0
-81 -66 0
-81 -72 0
-81 -78 0
-81 -84 0
-81 -87 0
-81 -93 0
-81 -96 0
-81 -99 0
-81 -105 0
-81 -111 0
-81 -117 0
-81 -120 0
-84 -6 0
-84 -9 0
-84 -12 0
-84 -18 0
-84 -21 0
-84 -24 0
-84 -39 0
-84 -45 0
-84 -48 0
-84 -51 0
-84 -54 0
-84 -57 0
-84 -66 0
-84 -69 0
-84 -78 0
-84 -81 0
-84 -99 0
-84 -102 0
-84 -105 0
-84 -108 0
-84 -114 0
-84 -117 0
-87 -6 0
-87 -9 0
-87 -12 0
-87 -15 0
-87 -18 0
-87 -21 0
-87 -24 0
-87 -27 0
-87 -33 0
-87 -36 0
-87 -39 0
-87 -48 0
-87 -51 0
-87 -57 0
-87 -60 0
-87 -63 0
-87 -72 0
-87 -75 0
-87 -78 0
-87 -81 0
-90 -3 0
-90 -6 0
-90 -9 0
-90 -18 0
-90 -21 0
-90 -24 0
-90 -30 0
-90 -33 0
-90 -39 0
-90 -45 0
-90 -51 0
-90 -54 0
-90 -63 0
-90 -66 0
-90 -69 0
-90 -75 0
-90 -78 0
-93 -3 0
-93 -9 0
-93 -12 0
-93 -21 0
-93 -27 0
-93 -30 0
-93 -33 0
-93 -36 0
-93 -39 0
-93 -42 0
-93 -48 0
-93 -54 0
-93 -57 0
-93 -66 0
-93 -69 0
-93 -75 0
-93 -81 0
-93 -96 0
-93 -99 0
-93 -108 0
-93 -117 0
-93 -120 0
-96 -21 0
-96 -45 0
-96 -51 0
-96 -54 0
-96 -63 0
-96 -69 0
-96 -75 0
-96 -78 0
-96 -81 0
-96 -93 0
-96 -99 0
-96 -102 0
-96 -108 0
-96 -111 0
-96 -114 0
-96 -117 0
-96 -120 0
-99 -3 0
-99 -12 0
-99 -27 0
-99 -30 0
-99 -33 0
-99 -36 0
-99 -39 0
-99 -42 0
-99 -45 0
-99 -48 0
-99 -51 0
-99 -57 0
-99 -63 0
-99 -69 0
-99 -72 0
-99 -75 0
-99 -78 0
-99 -81 0
-99 -84 0
-99 -93 0
-99 -96 0
-99 -108 0
-99 -114 0
-99 -117 0
-102 -3 0
-102 -6 0
-102 -9 0
-102 -21 0
-102 -24 0
-102 -33 0
-102 -36 0
-102 -45 0
-102 -48 0
-102 -54 0
-102 -60 0
-102 -69 0
-102 -84 0
-102 -96 0
-102 -108 0
-102 -114 0
-102 -117 0
-102 -120 0
-105 -6 0
-105 -9 0
-105 -15 0
-105 -21 0
-105 -24 0
-105 -27 0
-105 -30 0
-105 -33 0
-105 -36 0
-105 -39 0
-105 -45 0
-105 -54 0
-105 -57 0
-105 -60 0
-105 -63 0
-105 -69 0
-105 -72 0
-105 -78 0
-105 -81 0
-105 -84 0
-108 -3 0
-108 -6 0
-108 -9 0
-108 -18 0
-108 -24 0
-108 -27 0
-108 -30 0
-108 -36 0
-108 -48 0
-108 -54 0
-108 -57 0
-108 -60 0
-108 -66 0
-108 -72 0
-108 -84 0
-108 -93 0
-108 -96 0
-108 -99 0
-108 -102 0
-108 -111 0
-108 -114 0
-108 -117 0
-111 -3 0
-111 -9 0
-111 -12 0
-111 -30 0
-111 -33 0
-111 -36 0
-111 -45 0
-111 -51 0
-111 -54 0
-111 -57 0
-111 -60 0
-111 -63 0
-111 -78 0
-111 -81 0
-111 -96 0
-111 -108 0
-114 -3 0
-114 -9 0
-114 -24 0
-114 -36 0
-114 -42 0
-114 -45 0
-114 -54 0
-114 -57 0
-114 -60 0
-114 -66 0
-114 -78 0
-114 -84 0
-114 -96 0
-114 -99 0
-114 -102 0
-114 -108 0
-114 -117 0
-117 -12 0
-117 -15 0
-117 -18 0
-117 -21 0
-117 -27 0
-117 -30 0
-117 -45 0
-117 -66 0
-117 -72 0
-117 -75 0
-117 -81 0
-117 -84 0
-117 -93 0
-117 -96 0
-117 -99 0
-117 -102 0
-117 -108 0
-117 -114 0
-120 -3 0
-120 -6 0
-120 -9 0
-120 -12 0
-120 -15 0
-120 -18 0
-120 -21 0
-120 -33 0
-120 -42 0
-120 -45 0
-120 -51 0
-120 -54 0
-120 -57 0
-120 -63 0
-120 -66 0
-120 -69 0
-120 -78 0
-120 -81 0
-120 -93 0
-120 -96 0
-120 -102 0
